data/tester.fzn
predicate fzn_all_different_int(array [int] of var int: x);
array [1..2] of int: X_INTRODUCED_22_ = [-1,1];
var 1..4: X_INTRODUCED_17_;
var 1..4: X_INTRODUCED_18_;
var 1..4: X_INTRODUCED_19_;
var 1..4: X_INTRODUCED_20_;
var bool: X_INTRODUCED_23_ ::var_is_introduced :: is_defined_var;
var bool: X_INTRODUCED_24_ ::var_is_introduced :: is_defined_var;
var bool: X_INTRODUCED_25_ ::var_is_introduced :: is_defined_var;
var bool: X_INTRODUCED_26_ ::var_is_introduced :: is_defined_var;
var bool: X_INTRODUCED_27_ ::var_is_introduced :: is_defined_var;
var bool: X_INTRODUCED_28_ ::var_is_introduced :: is_defined_var;
var 0..6: goal:: is_defined_var;
var 0..1: X_INTRODUCED_29_ ::var_is_introduced :: is_defined_var;
var 0..1: X_INTRODUCED_30_ ::var_is_introduced :: is_defined_var;
var 0..1: X_INTRODUCED_31_ ::var_is_introduced :: is_defined_var;
var 0..1: X_INTRODUCED_32_ ::var_is_introduced :: is_defined_var;
var 0..1: X_INTRODUCED_33_ ::var_is_introduced :: is_defined_var;
var 0..1: X_INTRODUCED_34_ ::var_is_introduced :: is_defined_var;
array [1..4] of var int: perm:: output_array([1..4]) = [X_INTRODUCED_17_,X_INTRODUCED_18_,X_INTRODUCED_19_,X_INTRODUCED_20_];
constraint fzn_all_different_int(perm);
constraint int_lin_le_reif(X_INTRODUCED_22_,[X_INTRODUCED_17_,X_INTRODUCED_18_],-1,X_INTRODUCED_23_):: defines_var(X_INTRODUCED_23_);
constraint int_lin_le_reif(X_INTRODUCED_22_,[X_INTRODUCED_17_,X_INTRODUCED_19_],-1,X_INTRODUCED_24_):: defines_var(X_INTRODUCED_24_);
constraint int_lin_le_reif(X_INTRODUCED_22_,[X_INTRODUCED_17_,X_INTRODUCED_20_],-1,X_INTRODUCED_25_):: defines_var(X_INTRODUCED_25_);
constraint int_lin_le_reif(X_INTRODUCED_22_,[X_INTRODUCED_18_,X_INTRODUCED_19_],-1,X_INTRODUCED_26_):: defines_var(X_INTRODUCED_26_);
constraint int_lin_le_reif(X_INTRODUCED_22_,[X_INTRODUCED_18_,X_INTRODUCED_20_],-1,X_INTRODUCED_27_):: defines_var(X_INTRODUCED_27_);
constraint int_lin_le_reif(X_INTRODUCED_22_,[X_INTRODUCED_19_,X_INTRODUCED_20_],-1,X_INTRODUCED_28_):: defines_var(X_INTRODUCED_28_);
constraint int_lin_eq([1,1,1,1,1,1,-1],[X_INTRODUCED_29_,X_INTRODUCED_30_,X_INTRODUCED_31_,X_INTRODUCED_32_,X_INTRODUCED_33_,X_INTRODUCED_34_,goal],0):: defines_var(goal);
constraint bool2int(X_INTRODUCED_23_,X_INTRODUCED_29_):: defines_var(X_INTRODUCED_29_);
constraint bool2int(X_INTRODUCED_24_,X_INTRODUCED_30_):: defines_var(X_INTRODUCED_30_);
constraint bool2int(X_INTRODUCED_25_,X_INTRODUCED_31_):: defines_var(X_INTRODUCED_31_);
constraint bool2int(X_INTRODUCED_26_,X_INTRODUCED_32_):: defines_var(X_INTRODUCED_32_);
constraint bool2int(X_INTRODUCED_27_,X_INTRODUCED_33_):: defines_var(X_INTRODUCED_33_);
constraint bool2int(X_INTRODUCED_28_,X_INTRODUCED_34_):: defines_var(X_INTRODUCED_34_);
solve  minimize goal;
