data/tester.ozn
output ["perm = ",showDzn(perm),";\n"];
set of int: N = 1..4;
array [N] of int: perm;
